# Solution for model TSP0
# Objective value = 2.4920742108621148e+03
C0(2) 0
C1(2) 0
C2(2) 0
C3(2) 1
C4(2) 0
C5(2) 0
C6(2) 0
C7(2) 0
C8(2) 0
C9(2) 0
C10(2) 0
C11(2) 0.5
C12(2) 0
C13(2) 0
C14(2) 0
C15(2) 0
C16(2) 0
C17(2) 0.5
C18(2) 0
C19(2) 0
C20(2) 0
C21(2) 0
C22(2) 0
C23(2) 0
C24(2) 0
C25(2) 0
C26(2) 0
C27(2) 0
C28(2) 0
C29(2) 0
C30(2) 0
C31(2) 0
C32(2) 0
C33(2) 1
C34(2) 1
C35(2) 0
C36(2) 0
C37(2) 0
C38(2) 0
C39(2) 0
C40(2) 0
C41(2) 0
C42(2) 0
C43(2) 1
C44(2) 0
C45(2) 0
C46(2) 0
C47(2) 0
C48(2) 0
C49(2) 0
C50(2) 0
C51(2) 1
C52(2) 0
C53(2) 0
C54(2) 0
C55(2) 0
C56(2) 0
C57(2) 0
C58(2) 0
C59(2) 0
C60(3) 1
C61(3) 1
C62(2) 0
C63(2) 0
C64(2) 0
C65(2) 0
C66(2) 0
C67(2) 0
C68(2) 0
C69(2) 0
C70(2) 0
C71(2) 0
C72(2) 0
C73(2) 0
C74(2) 0
C75(2) 0
C76(2) 0
C77(2) 0
C78(2) 0
C79(2) 0
C80(2) 0
C81(2) 0
C82(2) 0
C83(2) 1
C84(2) 0
C85(2) 0
C86(2) 0
C87(2) 1
C88(2) 0
C89(2) 0
C90(2) 0
C91(2) 0
C92(2) 0
C93(2) 0
C94(2) 0
C95(2) 0
C96(2) 0
C97(2) 0
C98(2) 1
C99(2) 0.5
C100(2) 0
C101(2) 0
C102(2) 1
C103(2) 0.5
C104(2) 0
C105(2) 0
C106(2) 0
C107(2) 0
C108(2) 0
C109(2) 0
C110(2) 0
C111(2) 0
C112(2) 0
C113(2) 0
C114(2) 0
C115(2) 0.5
C116(2) 0
C117(2) 0
C118(2) 1
C119(2) 0
C120(2) 0
C121(2) 0
C122(2) 0
C123(2) 0
C124(2) 0
C125(2) 0
C126(2) 0
C127(2) 0
C128(2) 0
C129(2) 0
C130(2) 1
C131(2) 0
C132(2) 0
C133(2) 0
C134(2) 0
C135(2) 0
C136(2) 0
C137(2) 0
C138(2) 0
C139(2) 1
C140(2) 0
C141(2) 0
C142(2) 0
C143(2) 0
C144(2) 0
C145(3) 0
C146(2) 0
C147(2) 0
C148(2) 0
C149(2) 0
C150(2) 0
C151(2) 0
C152(2) 0
C153(2) 0
C154(2) 0
C155(2) 0
C156(2) 0
C157(2) 0
C158(2) 0
C159(2) 0
C160(2) 0
C161(2) 0
C162(2) 1
C163(2) 0
C164(2) 0
C165(2) 0
C166(2) 0
C167(2) 0.5
C168(2) 0
C169(2) 0
C170(2) 0
C171(2) 0
C172(2) 0
C173(2) 0
C174(2) 1
C175(2) 0
C176(2) 0
C177(2) 0
C178(2) 0
C179(2) 0
C180(2) 1
C181(2) 0
C182(2) 0
C183(2) 0
C184(2) 0
C185(2) 0
C186(2) 0
C187(2) 0
C188(2) 0
C189(2) 0
